70
1 0 6
2 0 6
2 1 4
3 0 3
3 1 5
3 2 5
4 0 6
4 1 5
4 2 6
4 3 1
5 0 5
5 1 4
5 2 4
5 3 6
5 4 1
6 0 4
6 1 5
6 2 4
6 3 4
6 4 4
6 5 3
7 0 6
7 1 6
7 2 5
7 3 4
7 4 4
7 5 1
7 6 1
8 0 5
8 1 4
8 2 1
8 3 6
8 4 3
8 5 2
8 6 6
8 7 6
9 0 4
9 1 4
9 2 4
9 3 5
9 4 2
9 5 1
9 6 1
9 7 3
9 8 6
10 0 2
10 1 3
10 2 4
10 3 2
10 4 6
10 5 5
10 6 4
10 7 2
10 8 2
10 9 2
11 0 6
11 1 4
11 2 1
11 3 5
11 4 4
11 5 6
11 6 4
11 7 2
11 8 4
11 9 1
11 10 3
12 0 2
12 1 5
12 2 4
12 3 4
12 4 2
12 5 4
12 6 6
12 7 2
12 8 3
12 9 1
12 10 1
12 11 1
13 0 4
13 1 5
13 2 1
13 3 4
13 4 2
13 5 6
13 6 1
13 7 4
13 8 4
13 9 4
13 10 5
13 11 6
13 12 6
14 0 2
14 1 4
14 2 4
14 3 4
14 4 4
14 5 1
14 6 1
14 7 1
14 8 6
14 9 5
14 10 1
14 11 3
14 12 3
14 13 5
15 0 1
15 1 1
15 2 4
15 3 4
15 4 5
15 5 6
15 6 5
15 7 5
15 8 1
15 9 1
15 10 1
15 11 2
15 12 6
15 13 4
15 14 4
16 0 3
16 1 1
16 2 3
16 3 4
16 4 3
16 5 6
16 6 5
16 7 1
16 8 6
16 9 4
16 10 1
16 11 6
16 12 5
16 13 6
16 14 6
16 15 6
17 0 6
17 1 6
17 2 1
17 3 5
17 4 5
17 5 4
17 6 5
17 7 4
17 8 3
17 9 6
17 10 2
17 11 5
17 12 2
17 13 1
17 14 1
17 15 4
17 16 6
18 0 3
18 1 2
18 2 3
18 3 5
18 4 3
18 5 4
18 6 1
18 7 6
18 8 3
18 9 4
18 10 1
18 11 1
18 12 3
18 13 3
18 14 1
18 15 3
18 16 3
18 17 3
19 0 4
19 1 4
19 2 3
19 3 1
19 4 3
19 5 2
19 6 5
19 7 3
19 8 3
19 9 2
19 10 4
19 11 5
19 12 2
19 13 6
19 14 1
19 15 1
19 16 2
19 17 2
19 18 2
20 0 1
20 1 3
20 2 3
20 3 3
20 4 5
20 5 4
20 6 3
20 7 3
20 8 6
20 9 3
20 10 1
20 11 6
20 12 1
20 13 4
20 14 4
20 15 6
20 16 2
20 17 4
20 18 3
20 19 1
21 0 5
21 1 3
21 2 1
21 3 3
21 4 3
21 5 1
21 6 2
21 7 2
21 8 2
21 9 6
21 10 6
21 11 2
21 12 5
21 13 3
21 14 1
21 15 3
21 16 4
21 17 5
21 18 6
21 19 5
21 20 6
22 0 3
22 1 6
22 2 5
22 3 4
22 4 6
22 5 2
22 6 3
22 7 5
22 8 6
22 9 3
22 10 3
22 11 6
22 12 6
22 13 3
22 14 5
22 15 6
22 16 4
22 17 2
22 18 6
22 19 1
22 20 1
22 21 4
23 0 6
23 1 3
23 2 6
23 3 2
23 4 5
23 5 4
23 6 6
23 7 5
23 8 3
23 9 3
23 10 6
23 11 1
23 12 1
23 13 5
23 14 3
23 15 1
23 16 4
23 17 6
23 18 1
23 19 4
23 20 6
23 21 3
23 22 4
24 0 2
24 1 4
24 2 5
24 3 6
24 4 5
24 5 4
24 6 1
24 7 6
24 8 1
24 9 5
24 10 3
24 11 4
24 12 3
24 13 2
24 14 5
24 15 2
24 16 4
24 17 2
24 18 3
24 19 4
24 20 2
24 21 6
24 22 6
24 23 1
25 0 3
25 1 3
25 2 5
25 3 5
25 4 2
25 5 5
25 6 4
25 7 5
25 8 5
25 9 5
25 10 6
25 11 2
25 12 5
25 13 2
25 14 3
25 15 3
25 16 6
25 17 4
25 18 1
25 19 5
25 20 5
25 21 5
25 22 2
25 23 2
25 24 6
26 0 4
26 1 2
26 2 1
26 3 5
26 4 6
26 5 4
26 6 4
26 7 4
26 8 3
26 9 6
26 10 2
26 11 1
26 12 2
26 13 2
26 14 2
26 15 2
26 16 3
26 17 3
26 18 3
26 19 2
26 20 4
26 21 6
26 22 6
26 23 4
26 24 1
26 25 6
27 0 2
27 1 3
27 2 2
27 3 2
27 4 6
27 5 2
27 6 1
27 7 2
27 8 1
27 9 1
27 10 3
27 11 3
27 12 5
27 13 1
27 14 6
27 15 5
27 16 2
27 17 1
27 18 4
27 19 2
27 20 1
27 21 4
27 22 4
27 23 3
27 24 2
27 25 4
27 26 3
28 0 6
28 1 5
28 2 2
28 3 5
28 4 1
28 5 4
28 6 4
28 7 1
28 8 2
28 9 6
28 10 6
28 11 2
28 12 3
28 13 5
28 14 3
28 15 5
28 16 3
28 17 4
28 18 4
28 19 6
28 20 4
28 21 2
28 22 3
28 23 1
28 24 5
28 25 6
28 26 6
28 27 4
29 0 5
29 1 6
29 2 1
29 3 5
29 4 5
29 5 6
29 6 2
29 7 6
29 8 6
29 9 3
29 10 1
29 11 2
29 12 6
29 13 2
29 14 2
29 15 3
29 16 2
29 17 1
29 18 5
29 19 5
29 20 6
29 21 6
29 22 6
29 23 6
29 24 4
29 25 2
29 26 5
29 27 3
29 28 2
30 0 1
30 1 5
30 2 2
30 3 3
30 4 6
30 5 5
30 6 6
30 7 4
30 8 1
30 9 5
30 10 5
30 11 5
30 12 1
30 13 6
30 14 1
30 15 2
30 16 3
30 17 6
30 18 2
30 19 3
30 20 3
30 21 1
30 22 4
30 23 6
30 24 2
30 25 4
30 26 4
30 27 5
30 28 1
30 29 3
31 0 4
31 1 1
31 2 2
31 3 3
31 4 2
31 5 3
31 6 1
31 7 3
31 8 2
31 9 3
31 10 3
31 11 1
31 12 6
31 13 2
31 14 2
31 15 2
31 16 6
31 17 6
31 18 1
31 19 4
31 20 3
31 21 4
31 22 6
31 23 3
31 24 2
31 25 4
31 26 1
31 27 2
31 28 1
31 29 5
31 30 3
32 0 4
32 1 6
32 2 3
32 3 2
32 4 4
32 5 2
32 6 4
32 7 3
32 8 6
32 9 2
32 10 2
32 11 3
32 12 6
32 13 5
32 14 6
32 15 5
32 16 2
32 17 6
32 18 2
32 19 2
32 20 6
32 21 1
32 22 6
32 23 4
32 24 4
32 25 5
32 26 2
32 27 3
32 28 4
32 29 1
32 30 5
32 31 4
33 0 2
33 1 1
33 2 4
33 3 3
33 4 6
33 5 6
33 6 1
33 7 5
33 8 2
33 9 6
33 10 2
33 11 2
33 12 1
33 13 5
33 14 3
33 15 6
33 16 3
33 17 4
33 18 2
33 19 6
33 20 3
33 21 3
33 22 1
33 23 3
33 24 6
33 25 4
33 26 4
33 27 5
33 28 5
33 29 5
33 30 2
33 31 3
33 32 1
34 0 3
34 1 2
34 2 4
34 3 5
34 4 1
34 5 2
34 6 3
34 7 6
34 8 3
34 9 4
34 10 5
34 11 5
34 12 2
34 13 2
34 14 6
34 15 1
34 16 3
34 17 4
34 18 2
34 19 5
34 20 3
34 21 6
34 22 6
34 23 6
34 24 1
34 25 5
34 26 6
34 27 6
34 28 1
34 29 3
34 30 6
34 31 6
34 32 5
34 33 6
35 0 2
35 1 1
35 2 2
35 3 3
35 4 6
35 5 4
35 6 2
35 7 3
35 8 3
35 9 3
35 10 1
35 11 1
35 12 6
35 13 5
35 14 3
35 15 1
35 16 1
35 17 5
35 18 4
35 19 2
35 20 1
35 21 6
35 22 2
35 23 3
35 24 3
35 25 6
35 26 2
35 27 4
35 28 6
35 29 4
35 30 5
35 31 1
35 32 4
35 33 6
35 34 6
36 0 3
36 1 3
36 2 3
36 3 6
36 4 1
36 5 4
36 6 2
36 7 1
36 8 6
36 9 5
36 10 3
36 11 1
36 12 3
36 13 3
36 14 4
36 15 6
36 16 2
36 17 5
36 18 1
36 19 3
36 20 5
36 21 5
36 22 5
36 23 5
36 24 1
36 25 3
36 26 3
36 27 5
36 28 1
36 29 3
36 30 3
36 31 2
36 32 1
36 33 5
36 34 6
36 35 1
37 0 2
37 1 2
37 2 5
37 3 2
37 4 4
37 5 4
37 6 5
37 7 1
37 8 5
37 9 3
37 10 6
37 11 4
37 12 6
37 13 4
37 14 1
37 15 5
37 16 5
37 17 4
37 18 6
37 19 6
37 20 5
37 21 1
37 22 6
37 23 3
37 24 4
37 25 5
37 26 5
37 27 5
37 28 4
37 29 4
37 30 3
37 31 1
37 32 4
37 33 1
37 34 2
37 35 3
37 36 3
38 0 6
38 1 6
38 2 3
38 3 2
38 4 3
38 5 6
38 6 4
38 7 4
38 8 3
38 9 5
38 10 1
38 11 6
38 12 6
38 13 5
38 14 2
38 15 6
38 16 5
38 17 1
38 18 1
38 19 3
38 20 3
38 21 6
38 22 1
38 23 4
38 24 5
38 25 2
38 26 2
38 27 1
38 28 6
38 29 4
38 30 3
38 31 2
38 32 1
38 33 5
38 34 2
38 35 4
38 36 2
38 37 3
39 0 3
39 1 2
39 2 3
39 3 3
39 4 6
39 5 3
39 6 2
39 7 6
39 8 2
39 9 1
39 10 6
39 11 2
39 12 5
39 13 4
39 14 4
39 15 5
39 16 3
39 17 1
39 18 6
39 19 3
39 20 4
39 21 3
39 22 1
39 23 3
39 24 6
39 25 1
39 26 4
39 27 6
39 28 1
39 29 3
39 30 5
39 31 1
39 32 4
39 33 1
39 34 2
39 35 4
39 36 5
39 37 6
39 38 4
40 0 1
40 1 5
40 2 4
40 3 4
40 4 5
40 5 6
40 6 3
40 7 5
40 8 5
40 9 3
40 10 3
40 11 4
40 12 5
40 13 5
40 14 5
40 15 1
40 16 4
40 17 1
40 18 4
40 19 5
40 20 6
40 21 6
40 22 4
40 23 4
40 24 5
40 25 6
40 26 4
40 27 5
40 28 2
40 29 1
40 30 3
40 31 2
40 32 4
40 33 2
40 34 4
40 35 1
40 36 5
40 37 2
40 38 6
40 39 2
41 0 6
41 1 4
41 2 2
41 3 5
41 4 4
41 5 5
41 6 2
41 7 5
41 8 1
41 9 5
41 10 1
41 11 6
41 12 2
41 13 1
41 14 4
41 15 3
41 16 3
41 17 4
41 18 3
41 19 4
41 20 4
41 21 5
41 22 6
41 23 1
41 24 4
41 25 6
41 26 3
41 27 3
41 28 6
41 29 4
41 30 1
41 31 4
41 32 1
41 33 1
41 34 2
41 35 5
41 36 5
41 37 3
41 38 4
41 39 4
41 40 4
42 0 3
42 1 4
42 2 1
42 3 6
42 4 3
42 5 3
42 6 2
42 7 2
42 8 1
42 9 2
42 10 2
42 11 5
42 12 5
42 13 6
42 14 1
42 15 2
42 16 5
42 17 4
42 18 6
42 19 1
42 20 2
42 21 2
42 22 1
42 23 1
42 24 4
42 25 1
42 26 4
42 27 4
42 28 4
42 29 2
42 30 4
42 31 6
42 32 4
42 33 2
42 34 5
42 35 5
42 36 5
42 37 1
42 38 1
42 39 6
42 40 3
42 41 4
43 0 5
43 1 1
43 2 1
43 3 5
43 4 5
43 5 5
43 6 2
43 7 3
43 8 2
43 9 1
43 10 4
43 11 4
43 12 3
43 13 4
43 14 1
43 15 2
43 16 4
43 17 4
43 18 4
43 19 1
43 20 1
43 21 1
43 22 3
43 23 1
43 24 6
43 25 6
43 26 1
43 27 3
43 28 4
43 29 2
43 30 5
43 31 1
43 32 6
43 33 1
43 34 6
43 35 1
43 36 1
43 37 4
43 38 5
43 39 1
43 40 3
43 41 6
43 42 3
44 0 2
44 1 5
44 2 6
44 3 3
44 4 1
44 5 2
44 6 3
44 7 5
44 8 5
44 9 5
44 10 3
44 11 1
44 12 1
44 13 4
44 14 2
44 15 3
44 16 3
44 17 6
44 18 2
44 19 6
44 20 6
44 21 4
44 22 3
44 23 6
44 24 6
44 25 4
44 26 4
44 27 4
44 28 4
44 29 4
44 30 3
44 31 3
44 32 3
44 33 1
44 34 6
44 35 1
44 36 6
44 37 6
44 38 2
44 39 4
44 40 4
44 41 4
44 42 6
44 43 1
45 0 4
45 1 4
45 2 6
45 3 5
45 4 1
45 5 4
45 6 1
45 7 2
45 8 6
45 9 2
45 10 1
45 11 6
45 12 4
45 13 4
45 14 1
45 15 4
45 16 3
45 17 6
45 18 1
45 19 6
45 20 6
45 21 3
45 22 2
45 23 2
45 24 2
45 25 3
45 26 6
45 27 2
45 28 6
45 29 1
45 30 1
45 31 4
45 32 6
45 33 2
45 34 1
45 35 5
45 36 3
45 37 6
45 38 1
45 39 3
45 40 6
45 41 3
45 42 5
45 43 1
45 44 6
46 0 5
46 1 4
46 2 1
46 3 1
46 4 5
46 5 2
46 6 5
46 7 2
46 8 6
46 9 6
46 10 4
46 11 4
46 12 2
46 13 3
46 14 4
46 15 5
46 16 4
46 17 5
46 18 2
46 19 3
46 20 5
46 21 3
46 22 1
46 23 5
46 24 5
46 25 1
46 26 2
46 27 5
46 28 3
46 29 2
46 30 2
46 31 1
46 32 6
46 33 5
46 34 5
46 35 4
46 36 4
46 37 6
46 38 2
46 39 3
46 40 6
46 41 3
46 42 4
46 43 4
46 44 3
46 45 1
47 0 1
47 1 1
47 2 4
47 3 4
47 4 1
47 5 4
47 6 6
47 7 3
47 8 5
47 9 5
47 10 4
47 11 1
47 12 1
47 13 5
47 14 2
47 15 6
47 16 1
47 17 2
47 18 3
47 19 1
47 20 3
47 21 4
47 22 1
47 23 4
47 24 6
47 25 2
47 26 2
47 27 1
47 28 5
47 29 2
47 30 2
47 31 1
47 32 6
47 33 2
47 34 2
47 35 2
47 36 6
47 37 4
47 38 6
47 39 5
47 40 3
47 41 2
47 42 2
47 43 4
47 44 1
47 45 6
47 46 3
48 0 1
48 1 1
48 2 5
48 3 2
48 4 1
48 5 5
48 6 6
48 7 1
48 8 6
48 9 4
48 10 4
48 11 5
48 12 5
48 13 1
48 14 1
48 15 3
48 16 5
48 17 2
48 18 2
48 19 2
48 20 3
48 21 3
48 22 2
48 23 4
48 24 5
48 25 2
48 26 6
48 27 1
48 28 6
48 29 5
48 30 1
48 31 1
48 32 3
48 33 5
48 34 6
48 35 2
48 36 4
48 37 2
48 38 3
48 39 1
48 40 3
48 41 3
48 42 5
48 43 2
48 44 3
48 45 4
48 46 4
48 47 3
49 0 4
49 1 3
49 2 4
49 3 1
49 4 5
49 5 4
49 6 1
49 7 5
49 8 5
49 9 6
49 10 1
49 11 1
49 12 4
49 13 6
49 14 1
49 15 4
49 16 3
49 17 5
49 18 1
49 19 3
49 20 3
49 21 3
49 22 2
49 23 3
49 24 3
49 25 3
49 26 2
49 27 3
49 28 5
49 29 6
49 30 1
49 31 5
49 32 2
49 33 1
49 34 2
49 35 6
49 36 1
49 37 2
49 38 2
49 39 4
49 40 5
49 41 6
49 42 6
49 43 2
49 44 6
49 45 5
49 46 2
49 47 4
49 48 5
50 0 1
50 1 6
50 2 2
50 3 4
50 4 5
50 5 3
50 6 3
50 7 4
50 8 4
50 9 5
50 10 1
50 11 4
50 12 6
50 13 3
50 14 6
50 15 3
50 16 4
50 17 5
50 18 1
50 19 4
50 20 2
50 21 1
50 22 2
50 23 1
50 24 2
50 25 1
50 26 5
50 27 2
50 28 5
50 29 3
50 30 3
50 31 3
50 32 6
50 33 5
50 34 6
50 35 3
50 36 3
50 37 6
50 38 2
50 39 5
50 40 6
50 41 5
50 42 4
50 43 3
50 44 2
50 45 6
50 46 1
50 47 6
50 48 1
50 49 2
51 0 3
51 1 1
51 2 4
51 3 5
51 4 2
51 5 6
51 6 6
51 7 3
51 8 3
51 9 5
51 10 4
51 11 4
51 12 1
51 13 6
51 14 5
51 15 3
51 16 2
51 17 1
51 18 5
51 19 4
51 20 5
51 21 2
51 22 1
51 23 6
51 24 5
51 25 3
51 26 4
51 27 5
51 28 5
51 29 1
51 30 1
51 31 1
51 32 1
51 33 5
51 34 6
51 35 2
51 36 5
51 37 4
51 38 1
51 39 5
51 40 2
51 41 5
51 42 6
51 43 2
51 44 4
51 45 4
51 46 4
51 47 5
51 48 2
51 49 3
51 50 6
52 0 6
52 1 2
52 2 5
52 3 3
52 4 4
52 5 2
52 6 4
52 7 6
52 8 5
52 9 4
52 10 3
52 11 2
52 12 6
52 13 1
52 14 2
52 15 5
52 16 6
52 17 5
52 18 1
52 19 3
52 20 3
52 21 5
52 22 5
52 23 1
52 24 5
52 25 6
52 26 1
52 27 4
52 28 4
52 29 5
52 30 2
52 31 6
52 32 5
52 33 6
52 34 4
52 35 5
52 36 5
52 37 2
52 38 6
52 39 4
52 40 5
52 41 2
52 42 5
52 43 5
52 44 6
52 45 5
52 46 2
52 47 4
52 48 1
52 49 6
52 50 3
52 51 5
53 0 6
53 1 3
53 2 2
53 3 4
53 4 4
53 5 2
53 6 4
53 7 2
53 8 1
53 9 3
53 10 2
53 11 1
53 12 2
53 13 6
53 14 4
53 15 6
53 16 2
53 17 6
53 18 4
53 19 4
53 20 4
53 21 6
53 22 3
53 23 2
53 24 1
53 25 3
53 26 6
53 27 5
53 28 2
53 29 6
53 30 4
53 31 1
53 32 5
53 33 5
53 34 3
53 35 5
53 36 2
53 37 2
53 38 4
53 39 5
53 40 2
53 41 2
53 42 3
53 43 2
53 44 2
53 45 2
53 46 3
53 47 3
53 48 4
53 49 6
53 50 2
53 51 3
53 52 4
54 0 1
54 1 5
54 2 5
54 3 4
54 4 1
54 5 6
54 6 3
54 7 5
54 8 4
54 9 5
54 10 6
54 11 4
54 12 4
54 13 4
54 14 1
54 15 3
54 16 6
54 17 2
54 18 4
54 19 2
54 20 3
54 21 3
54 22 4
54 23 1
54 24 6
54 25 2
54 26 5
54 27 3
54 28 3
54 29 4
54 30 5
54 31 5
54 32 4
54 33 1
54 34 6
54 35 3
54 36 5
54 37 4
54 38 3
54 39 4
54 40 3
54 41 2
54 42 3
54 43 5
54 44 1
54 45 1
54 46 1
54 47 5
54 48 3
54 49 2
54 50 5
54 51 1
54 52 6
54 53 2
55 0 4
55 1 4
55 2 2
55 3 2
55 4 2
55 5 5
55 6 6
55 7 5
55 8 5
55 9 6
55 10 5
55 11 5
55 12 6
55 13 5
55 14 6
55 15 1
55 16 4
55 17 3
55 18 2
55 19 6
55 20 5
55 21 3
55 22 5
55 23 6
55 24 5
55 25 3
55 26 6
55 27 6
55 28 4
55 29 3
55 30 5
55 31 2
55 32 4
55 33 4
55 34 1
55 35 2
55 36 2
55 37 1
55 38 5
55 39 4
55 40 4
55 41 2
55 42 6
55 43 3
55 44 5
55 45 5
55 46 5
55 47 6
55 48 4
55 49 6
55 50 1
55 51 4
55 52 5
55 53 6
55 54 2
56 0 2
56 1 1
56 2 4
56 3 2
56 4 1
56 5 3
56 6 5
56 7 4
56 8 6
56 9 4
56 10 6
56 11 1
56 12 3
56 13 3
56 14 1
56 15 3
56 16 1
56 17 4
56 18 5
56 19 2
56 20 2
56 21 3
56 22 2
56 23 1
56 24 4
56 25 3
56 26 4
56 27 2
56 28 4
56 29 2
56 30 4
56 31 4
56 32 6
56 33 5
56 34 3
56 35 2
56 36 1
56 37 5
56 38 3
56 39 6
56 40 1
56 41 1
56 42 4
56 43 2
56 44 4
56 45 3
56 46 2
56 47 5
56 48 6
56 49 2
56 50 5
56 51 3
56 52 4
56 53 3
56 54 4
56 55 5
57 0 3
57 1 3
57 2 1
57 3 6
57 4 6
57 5 5
57 6 5
57 7 2
57 8 1
57 9 3
57 10 5
57 11 2
57 12 2
57 13 2
57 14 4
57 15 5
57 16 2
57 17 2
57 18 2
57 19 3
57 20 1
57 21 2
57 22 2
57 23 6
57 24 1
57 25 2
57 26 1
57 27 5
57 28 4
57 29 3
57 30 3
57 31 2
57 32 2
57 33 6
57 34 6
57 35 4
57 36 1
57 37 6
57 38 6
57 39 2
57 40 5
57 41 5
57 42 4
57 43 3
57 44 3
57 45 6
57 46 5
57 47 5
57 48 2
57 49 5
57 50 3
57 51 2
57 52 5
57 53 2
57 54 5
57 55 1
57 56 2
58 0 2
58 1 4
58 2 1
58 3 4
58 4 1
58 5 1
58 6 3
58 7 3
58 8 1
58 9 1
58 10 3
58 11 1
58 12 2
58 13 2
58 14 6
58 15 5
58 16 4
58 17 4
58 18 6
58 19 3
58 20 3
58 21 5
58 22 6
58 23 4
58 24 4
58 25 2
58 26 6
58 27 4
58 28 6
58 29 1
58 30 4
58 31 4
58 32 3
58 33 3
58 34 3
58 35 1
58 36 2
58 37 1
58 38 4
58 39 3
58 40 2
58 41 3
58 42 3
58 43 4
58 44 3
58 45 4
58 46 5
58 47 1
58 48 6
58 49 5
58 50 1
58 51 1
58 52 2
58 53 4
58 54 4
58 55 4
58 56 5
58 57 5
59 0 6
59 1 1
59 2 6
59 3 1
59 4 3
59 5 2
59 6 2
59 7 4
59 8 6
59 9 5
59 10 5
59 11 1
59 12 5
59 13 6
59 14 3
59 15 1
59 16 3
59 17 3
59 18 3
59 19 4
59 20 3
59 21 4
59 22 5
59 23 6
59 24 6
59 25 1
59 26 2
59 27 5
59 28 2
59 29 1
59 30 5
59 31 1
59 32 5
59 33 5
59 34 5
59 35 4
59 36 5
59 37 2
59 38 4
59 39 4
59 40 5
59 41 5
59 42 4
59 43 4
59 44 4
59 45 6
59 46 1
59 47 1
59 48 4
59 49 5
59 50 3
59 51 4
59 52 3
59 53 1
59 54 5
59 55 6
59 56 6
59 57 1
59 58 1
60 0 6
60 1 4
60 2 5
60 3 1
60 4 6
60 5 4
60 6 2
60 7 5
60 8 6
60 9 2
60 10 6
60 11 5
60 12 2
60 13 6
60 14 1
60 15 3
60 16 5
60 17 5
60 18 1
60 19 6
60 20 3
60 21 5
60 22 1
60 23 4
60 24 6
60 25 6
60 26 5
60 27 5
60 28 4
60 29 3
60 30 4
60 31 4
60 32 6
60 33 4
60 34 2
60 35 2
60 36 3
60 37 2
60 38 5
60 39 6
60 40 2
60 41 2
60 42 1
60 43 2
60 44 4
60 45 3
60 46 4
60 47 5
60 48 5
60 49 3
60 50 4
60 51 4
60 52 4
60 53 4
60 54 5
60 55 2
60 56 1
60 57 5
60 58 6
60 59 6
61 0 2
61 1 2
61 2 3
61 3 3
61 4 3
61 5 5
61 6 2
61 7 2
61 8 5
61 9 1
61 10 2
61 11 3
61 12 6
61 13 5
61 14 3
61 15 6
61 16 5
61 17 5
61 18 6
61 19 1
61 20 2
61 21 5
61 22 4
61 23 2
61 24 6
61 25 1
61 26 1
61 27 3
61 28 6
61 29 5
61 30 2
61 31 1
61 32 1
61 33 5
61 34 2
61 35 5
61 36 3
61 37 4
61 38 2
61 39 4
61 40 2
61 41 3
61 42 2
61 43 3
61 44 6
61 45 1
61 46 6
61 47 4
61 48 2
61 49 2
61 50 4
61 51 2
61 52 3
61 53 6
61 54 5
61 55 3
61 56 3
61 57 5
61 58 5
61 59 6
61 60 2
62 0 2
62 1 6
62 2 5
62 3 5
62 4 4
62 5 5
62 6 3
62 7 1
62 8 4
62 9 2
62 10 5
62 11 3
62 12 5
62 13 2
62 14 1
62 15 4
62 16 2
62 17 1
62 18 4
62 19 4
62 20 5
62 21 1
62 22 3
62 23 6
62 24 2
62 25 1
62 26 2
62 27 3
62 28 1
62 29 3
62 30 3
62 31 3
62 32 3
62 33 3
62 34 1
62 35 1
62 36 3
62 37 4
62 38 6
62 39 6
62 40 4
62 41 6
62 42 3
62 43 3
62 44 5
62 45 2
62 46 4
62 47 3
62 48 1
62 49 3
62 50 4
62 51 6
62 52 3
62 53 6
62 54 1
62 55 1
62 56 5
62 57 2
62 58 1
62 59 4
62 60 3
62 61 2
63 0 2
63 1 2
63 2 3
63 3 3
63 4 6
63 5 1
63 6 3
63 7 2
63 8 3
63 9 1
63 10 3
63 11 2
63 12 2
63 13 4
63 14 5
63 15 4
63 16 5
63 17 3
63 18 5
63 19 4
63 20 4
63 21 4
63 22 6
63 23 2
63 24 4
63 25 6
63 26 4
63 27 1
63 28 3
63 29 1
63 30 4
63 31 4
63 32 6
63 33 2
63 34 3
63 35 6
63 36 4
63 37 1
63 38 3
63 39 3
63 40 1
63 41 4
63 42 6
63 43 2
63 44 5
63 45 5
63 46 5
63 47 1
63 48 2
63 49 1
63 50 5
63 51 1
63 52 6
63 53 1
63 54 1
63 55 4
63 56 6
63 57 1
63 58 1
63 59 1
63 60 2
63 61 1
63 62 5
64 0 4
64 1 5
64 2 5
64 3 3
64 4 2
64 5 1
64 6 2
64 7 5
64 8 1
64 9 4
64 10 5
64 11 4
64 12 4
64 13 4
64 14 5
64 15 2
64 16 6
64 17 2
64 18 2
64 19 3
64 20 4
64 21 2
64 22 1
64 23 6
64 24 2
64 25 3
64 26 1
64 27 3
64 28 5
64 29 6
64 30 1
64 31 2
64 32 1
64 33 1
64 34 4
64 35 4
64 36 2
64 37 4
64 38 2
64 39 1
64 40 1
64 41 3
64 42 6
64 43 3
64 44 4
64 45 3
64 46 2
64 47 4
64 48 4
64 49 6
64 50 4
64 51 5
64 52 5
64 53 1
64 54 4
64 55 5
64 56 1
64 57 4
64 58 3
64 59 4
64 60 2
64 61 3
64 62 2
64 63 3
65 0 4
65 1 4
65 2 5
65 3 4
65 4 6
65 5 4
65 6 4
65 7 2
65 8 1
65 9 5
65 10 4
65 11 6
65 12 2
65 13 4
65 14 2
65 15 6
65 16 2
65 17 5
65 18 2
65 19 6
65 20 2
65 21 1
65 22 1
65 23 3
65 24 5
65 25 6
65 26 5
65 27 2
65 28 2
65 29 6
65 30 2
65 31 3
65 32 3
65 33 2
65 34 2
65 35 6
65 36 6
65 37 6
65 38 5
65 39 4
65 40 5
65 41 3
65 42 2
65 43 4
65 44 1
65 45 6
65 46 4
65 47 6
65 48 6
65 49 1
65 50 6
65 51 4
65 52 1
65 53 4
65 54 3
65 55 6
65 56 6
65 57 2
65 58 1
65 59 1
65 60 6
65 61 6
65 62 1
65 63 3
65 64 6
66 0 5
66 1 5
66 2 4
66 3 6
66 4 3
66 5 4
66 6 6
66 7 2
66 8 6
66 9 3
66 10 2
66 11 2
66 12 4
66 13 4
66 14 5
66 15 3
66 16 1
66 17 5
66 18 1
66 19 3
66 20 1
66 21 4
66 22 1
66 23 5
66 24 3
66 25 3
66 26 4
66 27 5
66 28 1
66 29 3
66 30 2
66 31 2
66 32 2
66 33 2
66 34 1
66 35 6
66 36 6
66 37 4
66 38 5
66 39 3
66 40 6
66 41 2
66 42 1
66 43 1
66 44 3
66 45 4
66 46 3
66 47 4
66 48 1
66 49 1
66 50 3
66 51 5
66 52 3
66 53 5
66 54 3
66 55 5
66 56 1
66 57 3
66 58 5
66 59 4
66 60 1
66 61 6
66 62 6
66 63 5
66 64 1
66 65 2
67 0 2
67 1 6
67 2 1
67 3 5
67 4 6
67 5 4
67 6 5
67 7 6
67 8 5
67 9 6
67 10 6
67 11 2
67 12 4
67 13 6
67 14 6
67 15 4
67 16 4
67 17 1
67 18 1
67 19 3
67 20 1
67 21 4
67 22 1
67 23 1
67 24 6
67 25 5
67 26 4
67 27 5
67 28 6
67 29 5
67 30 5
67 31 6
67 32 3
67 33 3
67 34 4
67 35 3
67 36 5
67 37 5
67 38 2
67 39 6
67 40 6
67 41 6
67 42 3
67 43 1
67 44 4
67 45 4
67 46 6
67 47 6
67 48 4
67 49 5
67 50 3
67 51 5
67 52 4
67 53 3
67 54 1
67 55 5
67 56 2
67 57 1
67 58 2
67 59 2
67 60 3
67 61 6
67 62 4
67 63 5
67 64 1
67 65 2
67 66 4
68 0 6
68 1 3
68 2 5
68 3 5
68 4 2
68 5 5
68 6 5
68 7 6
68 8 5
68 9 6
68 10 3
68 11 3
68 12 6
68 13 6
68 14 3
68 15 6
68 16 1
68 17 5
68 18 4
68 19 3
68 20 4
68 21 6
68 22 1
68 23 1
68 24 3
68 25 1
68 26 5
68 27 2
68 28 2
68 29 2
68 30 6
68 31 1
68 32 2
68 33 3
68 34 2
68 35 6
68 36 6
68 37 1
68 38 1
68 39 5
68 40 1
68 41 2
68 42 2
68 43 4
68 44 1
68 45 6
68 46 6
68 47 2
68 48 1
68 49 2
68 50 4
68 51 5
68 52 4
68 53 4
68 54 4
68 55 2
68 56 2
68 57 1
68 58 6
68 59 4
68 60 5
68 61 1
68 62 3
68 63 3
68 64 2
68 65 3
68 66 3
68 67 2
69 0 4
69 1 1
69 2 6
69 3 3
69 4 3
69 5 3
69 6 2
69 7 2
69 8 6
69 9 3
69 10 3
69 11 5
69 12 3
69 13 3
69 14 1
69 15 6
69 16 3
69 17 5
69 18 1
69 19 3
69 20 1
69 21 5
69 22 4
69 23 5
69 24 2
69 25 5
69 26 3
69 27 4
69 28 3
69 29 5
69 30 1
69 31 5
69 32 6
69 33 3
69 34 3
69 35 1
69 36 1
69 37 2
69 38 4
69 39 5
69 40 5
69 41 4
69 42 5
69 43 5
69 44 4
69 45 6
69 46 1
69 47 4
69 48 1
69 49 4
69 50 4
69 51 4
69 52 3
69 53 6
69 54 6
69 55 1
69 56 6
69 57 4
69 58 1
69 59 4
69 60 4
69 61 5
69 62 4
69 63 2
69 64 4
69 65 4
69 66 6
69 67 6
69 68 3
